/* 326 */

/* Objective function */
min: +C3;

/* Constraints */
+1.5 C1 +2.4 C2 -C3 <= -0.09;
+3.5 C1 +2.67 C2 -C3 <= -0.09;
-4166666666.7 C2 -C3 <= -0.09;
-6666666670.57 C1 +2.4 C2 -C3 <= -0.09;
R5: -C3 <= -0.09;
R6: -C3 <= -0.09;
R7: -C3 <= -0.09;
R8: -C3 <= -0.09;
R9: -C3 <= -0.09;
R10: -C3 <= -0.09;
R11: -C3 <= -0.09;
R12: -C3 <= -0.09;
R13: -C3 <= -0.09;
R14: -C3 <= -0.09;
R15: -C3 <= -0.09;
R16: -C3 <= -0.09;
R17: -C3 <= -0.09;
R18: -C3 <= -0.09;
R19: -C3 <= -0.09;
R20: -C3 <= -0.09;
R21: -C3 <= -0.09;
R22: -C3 <= -0.09;
R23: -C3 <= -0.09;
R24: -C3 <= -0.09;
R25: -C3 <= -0.09;
R26: -C3 <= -0.09;
R27: -C3 <= -0.09;
R28: -C3 <= -0.09;
R29: -C3 <= -0.09;
R30: -C3 <= -0.09;
R31: -C3 <= -0.09;
R32: -C3 <= -0.09;
R33: -C3 <= -0.09;
R34: -C3 <= -0.09;
R35: -C3 <= -0.09;
R36: -C3 <= -0.09;
R37: -C3 <= -0.09;
R38: -C3 <= -0.09;
R39: -C3 <= -0.09;
R40: -C3 <= -0.09;
R41: -C3 <= -0.09;
R42: -C3 <= -0.09;
R43: -C3 <= -0.09;
R44: -C3 <= -0.09;
R45: -C3 <= -0.09;
R46: -C3 <= -0.09;
R47: -C3 <= -0.09;
R48: -C3 <= -0.09;
R49: -C3 <= -0.09;
R50: -C3 <= -0.09;
R51: -C3 <= -0.09;
R52: -C3 <= -0.09;
R53: -C3 <= -0.09;
R54: -C3 <= -0.09;
R55: -C3 <= -0.09;
R56: -C3 <= -0.09;
R57: -C3 <= -0.09;
R58: -C3 <= -0.09;
R59: -C3 <= -0.09;
R60: -C3 <= -0.09;
R61: -C3 <= -0.09;
R62: -C3 <= -0.09;
R63: -C3 <= -0.09;
R64: -C3 <= -0.09;
R65: -C3 <= -0.09;
R66: -C3 <= -0.09;
R67: -C3 <= -0.09;
R68: -C3 <= -0.09;
R69: -C3 <= -0.09;
R70: -C3 <= -0.09;
R71: -C3 <= -0.09;
R72: -C3 <= -0.09;
R73: -C3 <= -0.09;
R74: -C3 <= -0.09;
R75: -C3 <= -0.09;
R76: -C3 <= -0.09;
R77: -C3 <= -0.09;
R78: -C3 <= -0.09;
R79: -C3 <= -0.09;
R80: -C3 <= -0.09;
R81: -C3 <= -0.09;
R82: -C3 <= -0.09;
R83: -C3 <= -0.09;
R84: -C3 <= -0.09;
R85: -C3 <= -0.09;
R86: -C3 <= -0.09;
R87: -C3 <= -0.09;
R88: -C3 <= -0.09;
R89: -C3 <= -0.09;
R90: -C3 <= -0.09;
R91: -C3 <= -0.09;
R92: -C3 <= -0.09;
R93: -C3 <= -0.09;
R94: -C3 <= -0.09;
R95: -C3 <= -0.09;
R96: -C3 <= -0.09;
R97: -C3 <= -0.09;
R98: -C3 <= -0.09;
R99: -C3 <= -0.09;
R100: -C3 <= -0.09;
R101: -C3 <= -0.09;
R102: -C3 <= -0.09;
R103: -C3 <= -0.09;
R104: -C3 <= -0.09;
R105: -C3 <= -0.09;
R106: -C3 <= -0.09;
R107: -C3 <= -0.09;
R108: -C3 <= -0.09;
R109: -C3 <= -0.09;
R110: -C3 <= -0.09;
R111: -C3 <= -0.09;
R112: -C3 <= -0.09;
R113: -C3 <= -0.09;
R114: -C3 <= -0.09;
R115: -C3 <= -0.09;
R116: -C3 <= -0.09;
R117: -C3 <= -0.09;
R118: -C3 <= -0.09;
R119: -C3 <= -0.09;
R120: -C3 <= -0.09;
R121: -C3 <= -0.09;
R122: -C3 <= -0.09;
R123: -C3 <= -0.09;
R124: -C3 <= -0.09;
R125: -C3 <= -0.09;
R126: -C3 <= -0.09;
R127: -C3 <= -0.09;
R128: -C3 <= -0.09;
R129: -C3 <= -0.09;
R130: -C3 <= -0.09;
R131: -C3 <= -0.09;
R132: -C3 <= -0.09;
R133: -C3 <= -0.09;
R134: -C3 <= -0.09;
R135: -C3 <= -0.09;
R136: -C3 <= -0.09;
R137: -C3 <= -0.09;
R138: -C3 <= -0.09;
R139: -C3 <= -0.09;
R140: -C3 <= -0.09;
R141: -C3 <= -0.09;
R142: -C3 <= -0.09;
R143: -C3 <= -0.09;
R144: -C3 <= -0.09;
R145: -C3 <= -0.09;
R146: -C3 <= -0.09;
R147: -C3 <= -0.09;
R148: -C3 <= -0.09;
R149: -C3 <= -0.09;
R150: -C3 <= -0.09;
R151: -C3 <= -0.09;
R152: -C3 <= -0.09;
R153: -C3 <= -0.09;
R154: -C3 <= -0.09;
R155: -C3 <= -0.09;
R156: -C3 <= -0.09;
R157: -C3 <= -0.09;
R158: -C3 <= -0.09;
R159: -C3 <= -0.09;
R160: -C3 <= -0.09;
R161: -C3 <= -0.09;
R162: -C3 <= -0.09;
R163: -C3 <= -0.09;
R164: -C3 <= -0.09;
R165: -C3 <= -0.09;
R166: -C3 <= -0.09;
R167: -C3 <= -0.09;
R168: -C3 <= -0.09;
R169: -C3 <= -0.09;
R170: -C3 <= -0.09;
R171: -C3 <= -0.09;
R172: -C3 <= -0.09;
R173: -C3 <= -0.09;
R174: -C3 <= -0.09;
R175: -C3 <= -0.09;
R176: -C3 <= -0.09;
R177: -C3 <= -0.09;
R178: -C3 <= -0.09;
R179: -C3 <= -0.09;
R180: -C3 <= -0.09;
R181: -C3 <= -0.09;
R182: -C3 <= -0.09;
R183: -C3 <= -0.09;
R184: -C3 <= -0.09;
R185: -C3 <= -0.09;
R186: -C3 <= -0.09;
R187: -C3 <= -0.09;
R188: -C3 <= -0.09;
R189: -C3 <= -0.09;
R190: -C3 <= -0.09;
R191: -C3 <= -0.09;
R192: -C3 <= -0.09;
R193: -C3 <= -0.09;
R194: -C3 <= -0.09;
R195: -C3 <= -0.09;
R196: -C3 <= -0.09;
R197: -C3 <= -0.09;
R198: -C3 <= -0.09;
R199: -C3 <= -0.09;
R200: -C3 <= -0.09;
R201: -C3 <= -0.09;
R202: -C3 <= -0.09;
R203: -C3 <= -0.09;
R204: -C3 <= -0.09;
R205: -C3 <= -0.09;
R206: -C3 <= -0.09;
R207: -C3 <= -0.09;
R208: -C3 <= -0.09;
R209: -C3 <= -0.09;
R210: -C3 <= -0.09;
R211: -C3 <= -0.09;
R212: -C3 <= -0.09;
R213: -C3 <= -0.09;
R214: -C3 <= -0.09;
R215: -C3 <= -0.09;
R216: -C3 <= -0.09;
R217: -C3 <= -0.09;
R218: -C3 <= -0.09;
R219: -C3 <= -0.09;
R220: -C3 <= -0.09;
R221: -C3 <= -0.09;
R222: -C3 <= -0.09;
R223: -C3 <= -0.09;
R224: -C3 <= -0.09;
R225: -C3 <= -0.09;
R226: -C3 <= -0.09;
R227: -C3 <= -0.09;
R228: -C3 <= -0.09;
R229: -C3 <= -0.09;
R230: -C3 <= -0.09;
R231: -C3 <= -0.09;
R232: -C3 <= -0.09;
R233: -C3 <= -0.09;
R234: -C3 <= -0.09;
R235: -C3 <= -0.09;
R236: -C3 <= -0.09;
R237: -C3 <= -0.09;
R238: -C3 <= -0.09;
R239: -C3 <= -0.09;
R240: -C3 <= -0.09;
R241: -C3 <= -0.09;
R242: -C3 <= -0.09;
R243: -C3 <= -0.09;
R244: -C3 <= -0.09;
R245: -C3 <= -0.09;
R246: -C3 <= -0.09;
R247: -C3 <= -0.09;
R248: -C3 <= -0.09;
R249: -C3 <= -0.09;
R250: -C3 <= -0.09;
R251: -C3 <= -0.09;
R252: -C3 <= -0.09;
R253: -C3 <= -0.09;
R254: -C3 <= -0.09;
R255: -C3 <= -0.09;
R256: -C3 <= -0.09;
R257: -C3 <= -0.09;
R258: -C3 <= -0.09;
R259: -C3 <= -0.09;
R260: -C3 <= -0.09;
R261: -C3 <= -0.09;
R262: -C3 <= -0.09;
R263: -C3 <= -0.09;
R264: -C3 <= -0.09;
R265: -C3 <= -0.09;
R266: -C3 <= -0.09;
R267: -C3 <= -0.09;
R268: -C3 <= -0.09;
R269: -C3 <= -0.09;
R270: -C3 <= -0.09;
R271: -C3 <= -0.09;
R272: -C3 <= -0.09;
R273: -C3 <= -0.09;
R274: -C3 <= -0.09;
R275: -C3 <= -0.09;
R276: -C3 <= -0.09;
R277: -C3 <= -0.09;
R278: -C3 <= -0.09;
R279: -C3 <= -0.09;
R280: -C3 <= -0.09;
R281: -C3 <= -0.09;
R282: -C3 <= -0.09;
R283: -C3 <= -0.09;
R284: -C3 <= -0.09;
R285: -C3 <= -0.09;
R286: -C3 <= -0.09;
R287: -C3 <= -0.09;
R288: -C3 <= -0.09;
R289: -C3 <= -0.09;
R290: -C3 <= -0.09;
R291: -C3 <= -0.09;
R292: -C3 <= -0.09;
R293: -C3 <= -0.09;
R294: -C3 <= -0.09;
R295: -C3 <= -0.09;
R296: -C3 <= -0.09;
R297: -C3 <= -0.09;
R298: -C3 <= -0.09;
R299: -C3 <= -0.09;
R300: -C3 <= -0.09;
R301: -C3 <= -0.09;
R302: -C3 <= -0.09;
R303: -C3 <= -0.09;
R304: -C3 <= -0.09;
R305: -C3 <= -0.09;
R306: -C3 <= -0.09;
R307: -C3 <= -0.09;
R308: -C3 <= -0.09;
R309: -C3 <= -0.09;
R310: -C3 <= -0.09;
R311: -C3 <= -0.09;
R312: -C3 <= -0.09;
R313: -C3 <= -0.09;
R314: -C3 <= -0.09;
R315: -C3 <= -0.09;
R316: -C3 <= -0.09;
R317: -C3 <= -0.09;
R318: -C3 <= -0.09;
R319: -C3 <= -0.09;
R320: -C3 <= -0.09;
R321: -C3 <= -0.09;
R322: -C3 <= -0.09;
R323: -C3 <= -0.09;
R324: -C3 <= -0.09;
R325: -C3 <= -0.09;
R326: -C3 <= -0.09;
R327: -C3 <= -0.09;
R328: -C3 <= -0.09;

/* Variable bounds */
C1 >= -10000000000;
C2 >= -10000000000;
C3 >= -10000000000;
